data;

param:
I: Value :=
0    57
1    78
2    0
3    96
4    25
5    13
6    75
7    18
8    69
9    44
10    16
11    59
12    3
13    29
14    70
15    48
16    10
17    96
18    98
19    98
20    42
21    85
22    26
23    35
24    47
25    98
26    77
27    45
28    78
29    82
30    65
31    35
32    60
33    65
34    83;

param TargetSum := 535;
